52788
12 42 790
42 2 1096
2 5 385
5 27 404
27 54 487
54 25 397
25 48 560
48 52 1489
52 33 396
33 53 401
53 46 491
46 29 944
29 3 380
3 17 606
17 11 768
11 8 723
8 13 471
13 1 433
1 41 1722
41 32 4807
32 0 7621
0 26 4123
26 30 4460
30 24 299
24 10 545
10 44 436
44 51 722
51 14 631
14 35 679
35 45 402
45 38 214
38 15 451
15 9 734
9 21 117
21 28 544
28 20 516
20 22 176
22 16 619
16 47 415
47 18 897
18 43 1282
43 37 690
37 7 368
7 31 678
31 40 362
40 4 714
4 34 323
34 23 296
23 49 868
49 19 763
19 36 714
36 6 517
6 39 1176
39 50 1042
50 12 644
